c This file was generated with the constraints_to_cnf module in this project.
c Starting from file 'constraints.txt'.
c There are 6 variables present in the constraints, and 6 total variables, given by the shape [6].
c
p cnf 6 6
-1 0
-2 0
-3 0
-4 0
-5 0
-6 0

